8629
1,98,34,103,87,76,73,48,63,30,84,8,89,96,35,93,124,97,100,5,107,95,82,143,126,33,105,111,16,59,15,78,79,121,88,94,10,113,3,62,149,125,22,133,77,122,14,80,72,49,144,129,27,31,123,74,136,112,64,13,106,91,119,68,128,45,4,104,71,44,115,150,21,147,145,131,32,67,43,109,51,20,25,110,81,29,86,135,50,137,58,141,83,56,26,146,75,18,142,85,55,65,132,70,108,47,120,42,9,28,37,2,19,99,114,102,6,139,40,53,24,12,116,101,41,57,117,140,39,118,127,69,36,61,11,148,130,60,66,17,23,38,92,54,46,138,134,90,52,7,1
